# Solution for model GasLib-40
# Objective value = 13.534021962604
loadshed[innode_1] 0
loadshed[innode_2] 0
loadshed[innode_3] 0
loadshed[innode_4] 0
loadshed[innode_5] 0
loadshed[innode_6] 0
loadshed[innode_7] 0
loadshed[innode_8] 0
loadshed[source_1] -1.8790710948622702e-01
loadshed[source_2] -2.0033272685501258e-02
loadshed[source_3] 0.29354983363731
loadshed[sink_1] 0
loadshed[sink_2] 0
loadshed[sink_3] 0
loadshed[sink_4] 0
loadshed[sink_5] 0
loadshed[sink_6] 0
loadshed[sink_7] 0
loadshed[sink_8] 0
loadshed[sink_9] 0
loadshed[sink_10] 0
loadshed[sink_11] 0
loadshed[sink_12] 8.2755803083438462e-01
loadshed[sink_13] 0
loadshed[sink_14] 0
loadshed[sink_15] 0
loadshed[sink_16] 0
loadshed[sink_17] 0
loadshed[sink_18] 0
loadshed[sink_19] 0
loadshed[sink_20] 0
loadshed[sink_21] 0
loadshed[sink_22] 0
loadshed[sink_23] 0
loadshed[sink_24] 0
loadshed[sink_25] 0
loadshed[sink_26] 0
loadshed[sink_27] 0
loadshed[sink_28] 0
loadshed[sink_29] 0
flow[source_1,sink_3] 1.8779656491287471e+02
flow[innode_1,sink_16] 1.6354166666666970e+01
flow[innode_6,sink_13] 2.7962636302324313e+00
flow[sink_13,sink_14] -1.3557903036434237e+01
flow[sink_14,sink_10] -2.9912069703100940e+01
flow[sink_25,sink_26] 2.3177847803739803e+02
flow[sink_26,sink_9] 1.3013587963171616e+02
flow[sink_9,sink_18] 1.1378171296504949e+02
flow[sink_26,sink_4] 8.5288431739015209e+01
flow[sink_4,sink_20] 3.2708333333335005e+01
flow[sink_18,sink_6] 9.7427546298382822e+01
flow[sink_25,innode_8] -1.5508823157953839e+02
flow[sink_6,sink_7] 4.8365046298382367e+01
flow[sink_6,sink_22] 3.2708333333333641e+01
flow[sink_7,sink_24] 3.5528478037396006e+01
flow[sink_22,sink_1] 1.6354166666666970e+01
flow[sink_24,sink_21] 1.9174311370729335e+01
flow[sink_21,sink_12] 2.8201447040626682e+00
flow[sink_7,sink_5] -3.5175984056801184e+00
flow[sink_5,sink_17] -1.9871765072346989e+01
flow[sink_17,sink_4] -3.6225931739013660e+01
flow[sink_17,sink_8] 0
flow[sink_3,sink_23] 16.3541666666697
flow[sink_8,sink_20] -1.6354166666668334e+01
flow[sink_25,sink_20] 0
flow[sink_25,sink_15] -95.8406767547587
flow[sink_15,sink_29] -6.2573975324081516e+01
flow[sink_29,sink_28] 1.6354166666667879e+01
flow[sink_29,sink_2] 65.9750347640105
flow[sink_2,sink_15] 4.9620868097343873e+01
flow[sink_29,innode_7] -1.6125734342142664e+02
flow[innode_4,sink_19] 0
flow[sink_19,innode_3] 3.8539256663636252e+01
flow[innode_4,innode_5] 1.1168290303643498e+02
flow[sink_27,innode_5] -1.1168290303643498e+02
flow[sink_27,sink_19] 9.5328736369768308e+01
flow[sink_10,sink_11] 3.2708333333333641e+01
flow[sink_10,innode_2] -4.0435313039464972e+01
flow[sink_10,innode_3] -3.8539256663636252e+01
flow[innode_6,sink_25] -2.7962636302324313e+00
flow[sink_11,innode_1] 1.6354166666666970e+01
flow[sink_19,innode_2] 4.0435313039464972e+01
flow[source_3,innode_4] 1.1168290303643498e+02
flow[source_2,innode_7] 1.6125734342142664e+02
flow[sink_3,innode_8] 1.5508823157953839e+02
pressure[innode_1] 7.5674049107602869e+01
pressure[innode_2] 7.7962923712654586e+01
pressure[innode_3] 7.7877582892870350e+01
pressure[innode_4] 81.01325
pressure[innode_5] 8.0936428610233818e+01
pressure[innode_6] 7.4402103830895442e+01
pressure[innode_7] 81.01325
pressure[innode_8] 8.0385517824384380e+01
pressure[source_1] 81.01325
pressure[source_2] 81.01325
pressure[source_3] 81.01325
pressure[sink_1] 4.1469468791870888e+01
pressure[sink_2] 7.5029025700478726e+01
pressure[sink_3] 8.0385517824384380e+01
pressure[sink_4] 4.7234289791059453e+01
pressure[sink_5] 4.4369551270665532e+01
pressure[sink_6] 4.3570546402258259e+01
pressure[sink_7] 4.2906609601403339e+01
pressure[sink_8] 4.3694998948688124e+01
pressure[sink_9] 5.0289113471255341e+01
pressure[sink_10] 7.5825750415206414e+01
pressure[sink_11] 7.5674049107602869e+01
pressure[sink_12] 1.01325
pressure[sink_13] 7.4386688496801028e+01
pressure[sink_14] 7.4410951519162708e+01
pressure[sink_15] 7.4867024502404078e+01
pressure[sink_16] 7.4652399272785189e+01
pressure[sink_17] 4.5849854131311858e+01
pressure[sink_18] 4.6172151968351756e+01
pressure[sink_19] 7.7962923712654586e+01
pressure[sink_20] 4.4834654372276411e+01
pressure[sink_21] 2.0168118328263662e+00
pressure[sink_22] 4.2533237934225895e+01
pressure[sink_23] 80.2207998127246
pressure[sink_24] 2.2291495161972645e+00
pressure[sink_25] 7.4402103830895442e+01
pressure[sink_26] 5.8078081738673241e+01
pressure[sink_27] 8.0009666882846730e+01
pressure[sink_28] 7.6404965514776720e+01
pressure[sink_29] 7.6700247788393909e+01
interdiction[source_1,sink_3] 0
interdiction[innode_1,sink_16] 0
interdiction[innode_6,sink_13] 0
interdiction[sink_13,sink_14] 0
interdiction[sink_14,sink_10] 0
interdiction[sink_25,sink_26] 0
interdiction[sink_26,sink_9] 0
interdiction[sink_9,sink_18] 0
interdiction[sink_26,sink_4] 0
interdiction[sink_4,sink_20] 0
interdiction[sink_18,sink_6] 0
interdiction[sink_25,innode_8] 0
interdiction[sink_6,sink_7] 0
interdiction[sink_6,sink_22] 0
interdiction[sink_7,sink_24] 0
interdiction[sink_22,sink_1] 0
interdiction[sink_24,sink_21] 0
interdiction[sink_21,sink_12] 0
interdiction[sink_7,sink_5] 0
interdiction[sink_5,sink_17] 0
interdiction[sink_17,sink_4] 0
interdiction[sink_17,sink_8] 1
interdiction[sink_3,sink_23] 0
interdiction[sink_8,sink_20] 0
interdiction[sink_25,sink_20] 1
interdiction[sink_25,sink_15] 0
interdiction[sink_15,sink_29] 0
interdiction[sink_29,sink_28] 0
interdiction[sink_29,sink_2] 0
interdiction[sink_2,sink_15] 0
interdiction[sink_29,innode_7] 0
interdiction[innode_4,sink_19] 1
interdiction[sink_19,innode_3] 0
interdiction[innode_4,innode_5] 0
interdiction[sink_27,innode_5] 0
interdiction[sink_27,sink_19] 0
interdiction[sink_10,sink_11] 0
interdiction[sink_10,innode_2] 0
interdiction[sink_10,innode_3] 0
interdiction[innode_6,sink_25] 0
interdiction[sink_11,innode_1] 0
interdiction[sink_19,innode_2] 0
interdiction[source_3,innode_4] 0
interdiction[source_2,innode_7] 0
interdiction[sink_3,innode_8] 0
WCcheckFlow[source_1,sink_3] 39
WCcheckFlow[innode_1,sink_16] 1
WCcheckFlow[innode_6,sink_13] 13
WCcheckFlow[sink_13,sink_14] 12
WCcheckFlow[sink_14,sink_10] 11
WCcheckFlow[sink_25,sink_26] 15
WCcheckFlow[sink_26,sink_9] 11
WCcheckFlow[sink_9,sink_18] 10
WCcheckFlow[sink_26,sink_4] 3
WCcheckFlow[sink_4,sink_20] 2
WCcheckFlow[sink_18,sink_6] 9
WCcheckFlow[sink_25,innode_8] -36
WCcheckFlow[sink_6,sink_7] 6
WCcheckFlow[sink_6,sink_22] 2
WCcheckFlow[sink_7,sink_24] 3
WCcheckFlow[sink_22,sink_1] 1
WCcheckFlow[sink_24,sink_21] 2
WCcheckFlow[sink_21,sink_12] 1
WCcheckFlow[sink_7,sink_5] 2
WCcheckFlow[sink_5,sink_17] 1
WCcheckFlow[sink_17,sink_4] 0
WCcheckFlow[sink_17,sink_8] 0
WCcheckFlow[sink_3,sink_23] 1
WCcheckFlow[sink_8,sink_20] -1
WCcheckFlow[sink_25,sink_20] 0
WCcheckFlow[sink_25,sink_15] 6
WCcheckFlow[sink_15,sink_29] 5
WCcheckFlow[sink_29,sink_28] 1
WCcheckFlow[sink_29,sink_2] 1
WCcheckFlow[sink_2,sink_15] 0
WCcheckFlow[sink_29,innode_7] 2
WCcheckFlow[innode_4,sink_19] 0
WCcheckFlow[sink_19,innode_3] -5
WCcheckFlow[innode_4,innode_5] -2
WCcheckFlow[sink_27,innode_5] 3
WCcheckFlow[sink_27,sink_19] -4
WCcheckFlow[sink_10,sink_11] 3
WCcheckFlow[sink_10,innode_2] 1
WCcheckFlow[sink_10,innode_3] 6
WCcheckFlow[innode_6,sink_25] -14
WCcheckFlow[sink_11,innode_1] 2
WCcheckFlow[sink_19,innode_2] 0
WCcheckFlow[source_3,innode_4] -1
WCcheckFlow[source_2,innode_7] -1
WCcheckFlow[sink_3,innode_8] 37
